c --- [ banner ] -------------------------------------------------------------
c 
c CaDiCaL Radically Simplified CDCL SAT Solver
c Copyright (c) 2016-2021 A. Biere, M. Fleury, N. Froleyks
c 
c Version 1.5.2 a5f15211db36c3956764e18194dd5bd63bf3b5e6
c g++ (GCC) 9.3.0 -Wall -Wextra -O3 -DNDEBUG
c Fri Oct 21 01:27:37 EDT 2022 Linux gra-login3 3.10.0-1160.66.1.el7.x86_64 x86_64
c 
c --- [ limit ] --------------------------------------------------------------
c 
c setting conflict limit to 200000 conflicts (due to '200000')
c 
c --- [ parsing input ] ------------------------------------------------------
c 
c reading DIMACS file from '33.cubes4225.adj'
c opening file to read '33.cubes4225.adj'
c found 'p cnf 6160 1595476' header
c parsed 1595476 clauses in 19.58 seconds process time
c closing file '33.cubes4225.adj'
c after reading 1457566780 bytes 1390.0 MB
c 
c --- [ options ] ------------------------------------------------------------
c 
c all options are set to their default value
c 
c --- [ solving ] ------------------------------------------------------------
c 
c time measured in process time since initialization
c 
c  seconds    reductions  redundant   irredundant
c          MB     restarts       trail       variables
c            level   conflicts       glue         remaining
c 
c * 19.58 1377  0 0   0    0    0  0% 0 1595422 2405 39%
c { 20.06 1403  0 0   0    0    0  0% 0 1595422 2405 39%
c i 20.30 1419 1157 0   0   10    8 36% 1 1595422 2290 37%
c i 21.92 1485 534 0   3   51   37 33% 16 1595422 2244 36%
c i 23.83 1505 268 0  17  101   81 30% 19 1595422 2243 36%
c i 23.94 1505 254 0  17  107   86 30% 19 1595422 2242 36%
c i 24.70 1513 179 0  34  189  159 30% 33 1595422 2241 36%
c i 24.99 1514 176 0  38  202  169 30% 35 1595422 2238 36%
c i 25.10 1514 175 0  40  206  172 29% 35 1595422 2237 36%
c - 29.51 1377 123 1  43  300  208 27% 26 197116 2237 36%
c i 29.72 1377 106 1  43  361  252 26% 23 197116 2236 36%
c i 29.80 1377 104 1  46  383  273 26% 25 197116 2235 36%
c i 29.94 1378 104 1  49  439  316 26% 24 197116 2234 36%
c i 30.24 1378 94 1  74  540  393 26% 27 197116 2233 36%
c i 30.25 1378 93 1  74  549  399 26% 27 197116 2232 36%
c i 30.35 1378 91 1  76  578  425 26% 27 197116 2231 36%
c i 30.42 1378 91 1  80  594  439 27% 28 197116 2230 36%
c i 30.43 1378 91 1  80  595  439 27% 28 197116 2219 36%
c i 30.47 1378 94 1  85  613  455 27% 30 197116 2218 36%
c i 30.50 1378 98 1  98  657  484 26% 30 197116 2217 36%
c 
c  seconds    reductions  redundant   irredundant
c          MB     restarts       trail       variables
c            level   conflicts       glue         remaining
c 
c i 30.56 1378 95 1 100  686  495 26% 29 197116 2216 36%
c i 30.58 1378 95 1 100  697  504 26% 29 197116 2215 36%
c i 30.59 1378 96 1 100  709  509 26% 30 197116 2211 36%
c i 30.63 1378 92 1 102  765  552 27% 29 197116 2210 36%
c i 30.64 1378 91 1 102  771  556 27% 29 197116 2209 36%
c i 30.64 1378 91 1 102  772  556 27% 29 197116 2208 36%
c i 30.68 1377 89 1 102  806  582 27% 30 197116 2207 36%
c i 30.72 1378 88 1 106  835  599 27% 30 197116 2206 36%
c i 30.72 1378 88 1 106  836  599 27% 30 197116 2205 36%
c i 30.75 1378 88 1 110  852  610 27% 30 197116 2204 36%
c i 30.87 1378 86 1 117  885  638 27% 30 197116 2203 36%
c i 30.88 1378 86 1 117  888  640 27% 30 197116 2202 36%
c i 30.95 1378 87 1 118  915  664 27% 30 197116 2201 36%
c i 31.00 1378 87 1 123  941  681 27% 30 197116 2186 35%
c } 31.17 1378 86 1 125 1002  740 27% 30 197116 2182 35%
c [ 31.17 1378  0 1 125 1002  740  0% 0 197116 2182 35%
c O 31.18 1378  3 1 125 1003  741 17% 1 197116 2181 35%
c i 31.19 1378  4 1 125 1006  742 19% 2 197116 2180 35%
c i 31.28 1378 12 1 125 1032  757 26% 10 197116 2179 35%
c i 31.29 1378 13 1 125 1039  759 27% 12 197116 2178 35%
c 
c  seconds    reductions  redundant   irredundant
c          MB     restarts       trail       variables
c            level   conflicts       glue         remaining
c 
c i 31.31 1378 14 1 125 1059  770 29% 12 197116 2177 35%
c i 31.31 1378 14 1 125 1061  771 29% 12 197116 2176 35%
c i 31.32 1378 14 1 125 1062  771 29% 12 197116 2175 35%
c i 31.32 1378 15 1 125 1069  777 30% 12 197116 2174 35%
c - 31.62 1426 15 2 125 1076  695 30% 12 131221 2174 35%
c i 31.65 1426 15 2 125 1086  703 31% 13 131221 2173 35%
c i 31.67 1426 14 2 125 1100  714 31% 12 131221 2172 35%
c i 31.68 1426 14 2 125 1105  718 31% 12 131221 2171 35%
c i 31.69 1426 14 2 125 1131  730 31% 12 131221 2170 35%
c i 31.70 1426 14 2 125 1132  730 31% 12 131221 2169 35%
c i 31.70 1426 14 2 125 1134  731 31% 12 131221 2168 35%
c i 31.70 1426 15 2 125 1138  734 31% 12 131221 2167 35%
c i 31.71 1426 16 2 125 1161  754 31% 13 131221 2166 35%
c i 31.71 1426 16 2 125 1164  756 31% 13 131221 2165 35%
c i 31.71 1426 15 2 125 1165  756 31% 13 131221 2164 35%
c i 31.72 1426 16 2 125 1184  772 31% 13 131221 2163 35%
c i 31.72 1426 16 2 125 1187  774 31% 13 131221 2162 35%
c i 31.72 1426 16 2 125 1196  775 31% 14 131221 2161 35%
c i 31.75 1426 16 2 125 1291  843 32% 13 131221 2160 35%
c i 31.78 1426 17 2 125 1371  900 32% 14 131221 2159 35%
c 
c  seconds    reductions  redundant   irredundant
c          MB     restarts       trail       variables
c            level   conflicts       glue         remaining
c 
c i 31.86 1426 19 2 125 1611 1055 32% 16 131221 2158 35%
c i 31.87 1426 19 2 125 1638 1069 31% 16 131221 2157 35%
c i 31.87 1426 19 2 125 1641 1071 31% 16 131221 2156 35%
c i 31.88 1426 19 2 125 1682 1098 31% 16 131221 2155 35%
c i 31.91 1426 19 2 125 1803 1141 31% 16 131221 2154 35%
c i 31.91 1426 19 2 125 1812 1147 31% 16 131221 2153 35%
c i 31.92 1426 20 2 125 1847 1164 31% 17 131221 2152 35%
c - 32.13 1424 24 3 126 2082 1007 31% 20 131158 2152 35%
c i 32.39 1424 23 3 126 2494 1270 48% 20 131158 2151 35%
c i 32.50 1424 23 3 126 2816 1413 48% 19 131158 2150 35%
c ] 32.58 1424 22 3 126 3003 1507 48% 19 131158 2150 35%
c { 32.58 1424 86 3 126 3003 1507 78% 30 131158 2150 35%
c F 32.64 1424 86 3 126 3004 1508 78% 30 131158 2150 35%
c i 32.71 1424 83 3 126 3057 1549 76% 29 131158 2149 35%
c i 32.75 1424 79 3 126 3121 1589 75% 28 131158 2148 35%
c i 32.80 1424 76 3 126 3188 1638 73% 28 131158 2147 35%
c i 32.92 1424 74 3 128 3320 1746 70% 28 131158 2146 35%
c i 33.00 1424 74 3 132 3348 1764 69% 28 131158 2145 35%
c - 33.29 1377 72 4 137 3423 1300 67% 28 131137 2145 35%
c i 33.36 1378 70 4 137 3495 1352 66% 27 131137 2144 35%
c 
c  seconds    reductions  redundant   irredundant
c          MB     restarts       trail       variables
c            level   conflicts       glue         remaining
c 
c i 33.40 1378 68 4 137 3598 1412 65% 27 131137 2143 35%
c i 33.53 1377 60 4 137 4000 1673 61% 26 131137 2142 35%
c i 33.74 1377 50 4 137 4612 2018 57% 23 131137 2141 35%
c i 33.98 1378 51 4 171 4796 2167 56% 24 131137 2140 35%
c d 34.34 1377 51 4 192 5003 2281 55% 24 126622 2130 35%
c 2 34.37 1377 51 4 192 5003 3247 55% 24 126612 2130 35%
c p 37.88 1377 51 4 192 5003 6678 55% 24 126612 2089 34%
c d 38.05 1377 51 4 192 5003 6515 55% 24 126489 2088 34%
c - 38.36 1378 50 5 195 5102 1714 54% 24 126489 2088 34%
c # 38.76 1378 44 5 199 6006 2328 52% 23 126489 2088 34%
c } 39.71 1378 43 5 288 7011 3077 51% 23 126489 2088 34%
c [ 39.71 1378 22 5 288 7011 3077 48% 19 126489 2088 34%
c - 39.79 1382 22 6 288 7086 2232 48% 19 126489 2088 34%
c - 40.71 1382 22 7 290 9400 2373 46% 19 126489 2088 34%
c I 40.88 1382 22 7 290 10007 2708 46% 18 126489 2088 34%
c - 41.76 1382 24 8 292 12047 2735 46% 20 126489 2088 34%
c ] 42.00 1382 24 8 292 12536 3059 46% 20 126489 2088 34%
c 1 42.00 1382 24 8 292 12536 3059 46% 20 126489 2088 34%
c 
c --- [ writing output ] -----------------------------------------------------
c 
c writing simplified CNF to DIMACS file 'simp/33.cubes4225.adj.simp1'
c * 42.00 1382 24 8 292 12536 3059 46% 20 126489 2088 34%
c opening file to write 'simp/33.cubes4225.adj.simp1'
c writing 'p cnf 6160 126489' header
c closing file 'simp/33.cubes4225.adj.simp1'
c after writing 47701258 bytes 45.5 MB
c wrote 126489 clauses in 0.35 seconds process time
c 
c --- [ writing extension ] --------------------------------------------------
c 
c writing extension stack to 'simp/33.cubes4225.adj.ext1'
c opening file to write 'simp/33.cubes4225.adj.ext1'
c closing file 'simp/33.cubes4225.adj.ext1'
c after writing 14101 bytes 0.0 MB
c wrote 939 witnesses in 0.00 seconds process time
c 
c --- [ result ] -------------------------------------------------------------
c 
s SATISFIABLE
c 
c --- [ run-time profiling ] -------------------------------------------------
c 
c process time taken by individual solving procedures
c (percentage relative to process time for solving)
c 
c        19.58   87.33% parse
c        18.52   82.61% search
c        14.34   63.98% unstable
c         3.90   17.39% simplify
c         3.70   16.48% stable
c         3.51   15.67% probe
c         0.48    2.14% lucky
c         0.02    0.10% ternary
c   =================================
c        22.42   52.93% solve
c 
c last line shows process time for solving
c (percentage relative to total process time)
c 
c --- [ statistics ] ---------------------------------------------------------
c 
c chronological:              2415        19.26 %  of conflicts
c conflicts:                 12536       559.20    per second
c decisions:                 39970      1782.96    per second
c fixed:                       917        14.89 %  of all variables
c learned:                   12270        97.88 %  per conflict
c learned_lits:            2055530       100.00 %  learned literals
c minimized:                     0         0.00 %  learned literals
c shrunken:                1417353        68.95 %  learned literals
c minishrunken:             107361         5.22 %  learned literals
c propagations:            1907305         0.09 M  per second
c reduced:                    4818        38.43 %  per conflict
c rephased:                      4      3134.00    interval
c restarts:                    292        42.93    interval
c stabilizing:                   2        60.04 %  of conflicts
c substituted:                  11         0.18 %  of all variables
c subsumed:                   4317         0.13 %  of all clauses
c ternary:                     966         0.59 %  of resolved
c weakened:                     22         2.00    average size
c 
c seconds are measured in process time for solving
c 
c --- [ resources ] ----------------------------------------------------------
c 
c total process time since initialization:        42.35    seconds
c total real time since initialization:           42.71    seconds
c maximum resident set size of process:         1514.99    MB
c 
c --- [ shutting down ] ------------------------------------------------------
c 
c exit 10
WARNING! DIMACS header mismatch: wrong number of variables.
============================[ Problem Statistics ]=============================
|                                                                             |
|  Number of variables:          6120                                         |
|  Number of clauses:          126491                                         |
|  Parse time:                   0.63 s                                       |
|  Simplification time:          0.01 s                                       |
|                                                                             |
============================[ Search Statistics ]====================================================
| Conflicts |          ORIGINAL         |          LEARNT          | Num Sols |      SUBGRAPHS      |
|           |    Vars  Clauses Literals |    Limit  Clauses Lit/Cl |          | Canonical Noncanon. |
=====================================================================================================
|       114 |    6020   126505 10377355 |     2000      114     92 |        0 |        23        14 |
|       338 |    6020   126579 10378619 |     2000      338     51 |        0 |        55        88 |
|       631 |    6020   126647 10379421 |     2000      631     35 |        0 |       108       156 |
|      2042 |    6020   127721 10395083 |     3599     1041     10 |        0 |       374      1230 |
|      4506 |    6020   129679 10420435 |     3599     3505     12 |        0 |       639      3188 |
|      6287 |    6020   130701 10436966 |     5000     3487     18 |        0 |       844      4210 |
|     12270 |    6020   135545 10501443 |     7551     3821     10 |        0 |      1513      9054 |
|     22676 |    6020   144243 10622686 |     9992     6068     10 |        0 |      2671     17752 |
|     45236 |    5995   164240 10853406 |    13604    11839     10 |        0 |      4196     37750 |
=====================================================================================================
Number of solutions   : 0
Canonical subgraphs   : 5284           (125 /sec)
          order  3    : 1              (166667 /sec)
          order  4    : 1              (500000 /sec)
          order  5    : 1              (250000 /sec)
          order  6    : 1              (52632 /sec)
          order  7    : 1              (8333 /sec)
          order  8    : 2              (1365 /sec)
          order  9    : 10             (426 /sec)
          order 10    : 38             (211 /sec)
          order 11    : 188            (167 /sec)
          order 12    : 808            (185 /sec)
          order 13    : 3949           (145 /sec)
          order 14    : 255            (32 /sec)
          order 15    : 29             (22 /sec)
          order 16    : 0              (-nan /sec)
          order 17    : 0              (-nan /sec)
          order 18    : 0              (-nan /sec)
          order 19    : 0              (-nan /sec)
          order 20    : 0              (-nan /sec)
          order 21    : 0              (-nan /sec)
          order 22    : 0              (-nan /sec)
Noncanonical subgraphs: 50178          (841 /sec)
          order  3    : 0              (-nan /sec)
          order  4    : 0              (-nan /sec)
          order  5    : 0              (-nan /sec)
          order  6    : 0              (-nan /sec)
          order  7    : 0              (-nan /sec)
          order  8    : 0              (-nan /sec)
          order  9    : 0              (-nan /sec)
          order 10    : 0              (-nan /sec)
          order 11    : 0              (-nan /sec)
          order 12    : 0              (-nan /sec)
          order 13    : 5261           (9043 /sec)
          order 14    : 43926          (783 /sec)
          order 15    : 895            (359 /sec)
          order 16    : 96             (201 /sec)
          order 17    : 0              (-nan /sec)
          order 18    : 0              (-nan /sec)
          order 19    : 0              (-nan /sec)
          order 20    : 0              (-nan /sec)
          order 21    : 0              (-nan /sec)
Canonicity checking   : 42.3187 s
Noncanonicity checking: 59.6352 s
Total canonicity time : 101.954 s
database reductions   : 11
restarts              : 190
conflicts             : 60889          (551 /sec)
decisions             : 131228         (0.00 % random) (1187 /sec)
propagations          : 6137695        (55500 /sec)
conflict literals     : 852736         (62.87 % deleted)
actual reward         : 0.042418
Memory used           : 62.00 MB
CPU time              : 110.588 s

UNSATISFIABLE
